
  32    4
  10   10   10   10

   0   0   0   0   0   6 2 3 4 8 12 14 
   1   1   1   0   1   3 11 9 6 
   2   0   7   1   4   3 13 9 5 
   2   5   2   0   4   3 21 10 7 
   2   4   6   6   0   6 23 21 20 18 17 15 
   6   6   0   3   4   4 18 16 15 13 
  10   3   4   0   3   2 20 9 
   3   2   0   4   4   6 25 23 21 18 17 15 
   2   4   0   3   3   6 25 23 22 19 18 17 
   3   1   6   5   0   4 19 18 17 15 
   2   0   3   5   1   4 25 24 18 15 
   4   6   3   0   5   5 25 24 22 21 18 
   5   0   4   2   7   4 25 22 21 17 
   7   5   0   3   5   3 23 22 17 
   5   4   0   5   4   5 31 30 29 28 22 
   8   2   7   0   3   4 31 30 27 21 
   4   4   5   0   4   5 31 29 27 26 24 
   6   0   2   6   5   4 30 29 27 26 
   5   4   3   0   4   4 31 28 27 26 
   3   9   0   7   3   3 30 28 25 
   5   6   3   0   3   3 29 28 26 
   5   0   3   3   4   2 27 26 
   4   2   3   6   0   2 30 27 
   5   0   5   3   2   1 28 
   5   5   4   4   0   1 26 
   6   3   0   3   2   1 32
   8   4   3   3   0   1 32
  10   0   5   2   7   1 32
   4   4   4   0   7   1 32
   5   0   4   6   6   1 32
   6   0   5   4   5   1 32
   0   0   0   0   0   0 
